c Reduced graph for GEOM30a_0 generated by Cyril Grelier
p edge 25 69
e 1 5
e 1 14
e 1 15
e 1 20
e 1 21
e 1 24
e 2 3
e 2 6
e 2 11
e 2 16
e 2 18
e 3 6
e 3 8
e 3 11
e 3 17
e 4 9
e 4 13
e 5 10
e 5 14
e 5 15
e 5 19
e 5 20
e 5 21
e 5 22
e 5 23
e 5 25
e 6 8
e 6 11
e 6 16
e 6 17
e 7 12
e 7 14
e 7 21
e 7 24
e 8 11
e 8 17
e 9 13
e 9 18
e 10 12
e 10 14
e 10 19
e 10 21
e 11 16
e 11 17
e 12 14
e 12 21
e 12 24
e 14 19
e 14 20
e 14 21
e 14 24
e 15 19
e 15 20
e 15 21
e 15 22
e 15 23
e 15 25
e 16 18
e 19 21
e 19 23
e 20 21
e 20 22
e 20 23
e 20 24
e 20 25
e 21 24
e 22 23
e 22 25
e 23 25
